200
300
240
239
238
238
236
236
234
234
233
232
232
231
230
229
229
228
227
227
224
222
222
222
221
220
220
219
219
218
214
213
213
211
210
210
206
206
205
205
203
203
202
201
201
201
200
200
199
198
198
197
197
197
193
193
193
191
189
188
188
186
186
186
185
184
184
182
180
177
177
176
176
173
169
168
168
166
165
164
164
163
162
161
161
161
159
157
157
157
154
153
153
153
151
150
149
149
148
147
145
144
142
141
140
138
138
136
136
135
135
135
135
134
133
133
131
131
131
130
130
130
130
127
124
123
123
123
121
120
117
117
112
111
111
110
108
108
107
106
106
101
100
100
99
96
92
87
87
82
82
81
80
78
76
76
75
75
74
71
68
68
68
66
65
64
63
63
63
63
62
62
61
60
57
56
56
56
54
54
53
52
52
49
49
49
48
48
47
42
42
41
38
38
38
36
35
33
33
33
31
30
